20	5
0	7	3	4	1	17	6	5	2
1	2	20	19
2	2	21	15
3	1	7
4	2	12	16
5	1	21
6	1	18
7	1	8
8	1	13
9	2	14	21
10	1	12
11	2	10	16
12	1	9
13	1	11
14	1	21
15	1	21
16	1	21
17	1	21
18	1	21
19	1	21
20	1	21
21	0
0	0	0	0	0	0	0
1	2	0	4	0	2	3
2	9	5	3	1	2	5
3	9	0	0	0	0	2
4	2	5	0	2	0	0
5	10	4	0	0	0	0
6	1	1	0	4	0	0
7	10	1	0	3	4	2
8	1	1	5	5	0	1
9	10	0	5	0	0	0
10	3	3	0	0	0	1
11	5	2	3	3	3	0
12	9	0	4	1	0	4
13	9	0	5	0	0	0
14	3	0	1	4	0	0
15	3	0	3	0	1	0
16	6	0	3	0	3	0
17	5	5	0	4	5	0
18	6	0	0	0	0	5
19	1	2	0	3	2	4
20	3	4	0	0	5	4
21	0	0	0	0	0	0
13	7	8	7	11
